c # BDD stored by the DDDMP tool in CNF format
c #
c # Warning: BDD IDs missing ... evaluating them.
c # 
c # Warning: AUX IDs missing ... equal to BDD IDs.
c #
c # Warning: CNF IDs missing ... equal to BDD IDs.
c #
c .ver DDDMP-2.0
c .nnodes 43
c .nvars 12
c .nsuppvars 12
c .suppvarnames A A' B B' C C' D D' E E' _jx_b0 strat_type
c .orderedvarnames A A' B B' C C' D D' E E' _jx_b0 strat_type
c .ids  0 1 2 3 4 5 6 7 8 9 10 11
c .permids  0 1 2 3 4 5 6 7 8 9 10 11
c .auxids  0 1 2 3 4 5 6 7 8 9 10 11
c .cnfids  1 2 3 4 5 6 7 8 9 10 11 12
c .nroots 1
c .rootids 1         
c .nAddedCnfVar 0
c #
c # Init CNF Clauses
c #
p cnf 12 56                
1 3 4 5 6 0
1 3 4 5 9 0
1 3 4 5 -11 0
1 3 4 5 -10 0
1 3 4 5 -8 0
1 3 4 5 -7 0
1 3 4 -5 10 0
1 3 4 -5 -12 0
1 3 4 -5 -11 0
1 3 4 -5 -8 0
1 3 4 -5 -7 0
1 3 4 -5 -6 0
1 3 -4 9 0
1 3 -4 -11 0
1 3 -4 -10 0
1 3 -4 -8 0
1 3 -4 -7 0
1 3 -4 -5 0
1 -3 10 0
1 -3 -12 0
1 -3 -11 0
1 -3 -9 0
1 -3 -8 0
1 -3 -7 0
1 -3 -6 0
1 -3 -4 0
1 -2 0
-1 3 4 5 6 0
-1 3 4 5 -12 0
-1 3 4 5 -11 0
-1 3 4 5 -10 0
-1 3 4 5 -8 0
-1 3 4 5 -7 0
-1 3 4 -5 6 0
-1 3 4 -5 -12 0
-1 3 4 -5 -11 0
-1 3 4 -5 -8 0
-1 3 4 -5 -7 0
-1 3 -4 -12 0
-1 3 -4 -11 0
-1 3 -4 -10 0
-1 3 -4 -8 0
-1 3 -4 -7 0
-1 -3 4 6 0
-1 -3 4 -12 0
-1 -3 4 -11 0
-1 -3 4 -9 0
-1 -3 4 -8 0
-1 -3 4 -7 0
-1 -3 -4 -12 0
-1 -3 -4 -11 0
-1 -3 -4 -10 0
-1 -3 -4 -9 0
-1 -3 -4 -8 0
-1 -3 -4 -7 0
-1 -2 0
c # End of Cnf From dddmp-2.0
